p cnf 214 1023
c p weight 26 0 0
c p weight -26 1 0
c p weight 27 1 0
c p weight -27 1 0
c p weight 35 0 0
c p weight -35 1 0
c p weight 36 1 0
c p weight -36 1 0
c p weight 44 0 0
c p weight -44 1 0
c p weight 45 1 0
c p weight -45 1 0
c p weight 52 0 0
c p weight -52 1 0
c p weight 53 1 0
c p weight -53 1 0
c p weight 61 0 0
c p weight -61 1 0
c p weight 62 1 0
c p weight -62 1 0
c p weight 69 0 0
c p weight -69 1 0
c p weight 70 1 0
c p weight -70 1 0
c p weight 78 0 0
c p weight -78 1 0
c p weight 79 1 0
c p weight -79 1 0
c p weight 87 0 0
c p weight -87 1 0
c p weight 88 1 0
c p weight -88 1 0
c p weight 95 0 0
c p weight -95 1 0
c p weight 96 1 0
c p weight -96 1 0
c p weight 105 0 0
c p weight -105 1 0
c p weight 106 1 0
c p weight -106 1 0
c p weight 117 0 0
c p weight -117 1 0
c p weight 118 1 0
c p weight -118 1 0
c p weight 129 0 0
c p weight -129 1 0
c p weight 130 1 0
c p weight -130 1 0
c p weight 140 0 0
c p weight -140 1 0
c p weight 141 1 0
c p weight -141 1 0
c p weight 152 0 0
c p weight -152 1 0
c p weight 153 1 0
c p weight -153 1 0
c p weight 163 0 0
c p weight -163 1 0
c p weight 164 1 0
c p weight -164 1 0
c p weight 175 0 0
c p weight -175 1 0
c p weight 176 1 0
c p weight -176 1 0
c p weight 187 0 0
c p weight -187 1 0
c p weight 188 1 0
c p weight -188 1 0
c p weight 198 0 0
c p weight -198 1 0
c p weight 199 1 0
c p weight -199 1 0
c p weight 210 0 0
c p weight -210 1 0
c p weight 211 1 0
c p weight -211 1 0
c p weight 212 -1 0
c p weight -212 1 0
c p weight 214 0.5 0
214 0
-21 0
-19 0
-17 0
-15 0
-13 0
-11 0
-9 0
-7 0
-5 0
-3 0
-1 0
22 -21 1 0
22 -21 2 0
-22 21 1 0
-22 21 2 0
22 21 -1 -2 0
-22 -21 -1 -2 0
23 1 -2 0
23 -1 2 0
-23 1 2 0
-23 -1 -2 0
24 25 -22 0
24 -22 23 0
-24 25 22 0
-24 22 23 0
24 -22 -1 0
-24 22 -1 0
24 -25 22 1 -23 0
-24 -25 -22 1 -23 0
25 -1 23 0
-25 1 23 0
-26 23 0
25 -26 -1 0
-25 -26 1 0
25 26 1 -23 0
-25 26 -1 -23 0
-27 23 0
25 -27 1 0
-25 -27 -1 0
25 27 -1 -23 0
-25 27 1 -23 0
28 -24 25 0
28 -24 23 0
-28 24 25 0
-28 24 23 0
28 24 -25 -23 0
-28 -24 -25 -23 0
29 25 -23 0
29 -25 23 0
-29 25 23 0
-29 -25 -23 0
30 28 -29 0
30 -28 29 0
-30 28 29 0
-30 -28 -29 0
31 -30 3 0
31 -30 4 0
-31 30 3 0
-31 30 4 0
31 30 -3 -4 0
-31 -30 -3 -4 0
32 3 -4 0
32 -3 4 0
-32 3 4 0
-32 -3 -4 0
33 34 -31 0
33 -31 32 0
-33 34 31 0
-33 31 32 0
33 -31 -3 0
-33 31 -3 0
33 -34 31 3 -32 0
-33 -34 -31 3 -32 0
34 -3 32 0
-34 3 32 0
-35 32 0
34 -35 -3 0
-34 -35 3 0
34 35 3 -32 0
-34 35 -3 -32 0
-36 32 0
34 -36 3 0
-34 -36 -3 0
34 36 -3 -32 0
-34 36 3 -32 0
37 -33 34 0
37 -33 32 0
-37 33 34 0
-37 33 32 0
37 33 -34 -32 0
-37 -33 -34 -32 0
38 34 -32 0
38 -34 32 0
-38 34 32 0
-38 -34 -32 0
39 37 -38 0
39 -37 38 0
-39 37 38 0
-39 -37 -38 0
40 -39 5 0
40 -39 6 0
-40 39 5 0
-40 39 6 0
40 39 -5 -6 0
-40 -39 -5 -6 0
41 5 -6 0
41 -5 6 0
-41 5 6 0
-41 -5 -6 0
42 43 -40 0
42 -40 41 0
-42 43 40 0
-42 40 41 0
42 -40 -5 0
-42 40 -5 0
42 -43 40 5 -41 0
-42 -43 -40 5 -41 0
43 -5 41 0
-43 5 41 0
-44 41 0
43 -44 -5 0
-43 -44 5 0
43 44 5 -41 0
-43 44 -5 -41 0
-45 41 0
43 -45 5 0
-43 -45 -5 0
43 45 -5 -41 0
-43 45 5 -41 0
46 -42 43 0
46 -42 41 0
-46 42 43 0
-46 42 41 0
46 42 -43 -41 0
-46 -42 -43 -41 0
47 43 -41 0
47 -43 41 0
-47 43 41 0
-47 -43 -41 0
48 -46 7 0
48 -46 8 0
-48 46 7 0
-48 46 8 0
48 46 -7 -8 0
-48 -46 -7 -8 0
49 7 -8 0
49 -7 8 0
-49 7 8 0
-49 -7 -8 0
50 51 -48 0
50 -48 49 0
-50 51 48 0
-50 48 49 0
50 -48 -7 0
-50 48 -7 0
50 -51 48 7 -49 0
-50 -51 -48 7 -49 0
51 -7 49 0
-51 7 49 0
-52 49 0
51 -52 -7 0
-51 -52 7 0
51 52 7 -49 0
-51 52 -7 -49 0
-53 49 0
51 -53 7 0
-51 -53 -7 0
51 53 -7 -49 0
-51 53 7 -49 0
54 -50 51 0
54 -50 49 0
-54 50 51 0
-54 50 49 0
54 50 -51 -49 0
-54 -50 -51 -49 0
55 51 -49 0
55 -51 49 0
-55 51 49 0
-55 -51 -49 0
56 54 -55 0
56 -54 55 0
-56 54 55 0
-56 -54 -55 0
57 -56 9 0
57 -56 10 0
-57 56 9 0
-57 56 10 0
57 56 -9 -10 0
-57 -56 -9 -10 0
58 9 -10 0
58 -9 10 0
-58 9 10 0
-58 -9 -10 0
59 60 -57 0
59 -57 58 0
-59 60 57 0
-59 57 58 0
59 -57 -9 0
-59 57 -9 0
59 -60 57 9 -58 0
-59 -60 -57 9 -58 0
60 -9 58 0
-60 9 58 0
-61 58 0
60 -61 -9 0
-60 -61 9 0
60 61 9 -58 0
-60 61 -9 -58 0
-62 58 0
60 -62 9 0
-60 -62 -9 0
60 62 -9 -58 0
-60 62 9 -58 0
63 -59 60 0
63 -59 58 0
-63 59 60 0
-63 59 58 0
63 59 -60 -58 0
-63 -59 -60 -58 0
64 60 -58 0
64 -60 58 0
-64 60 58 0
-64 -60 -58 0
65 -63 11 0
65 -63 12 0
-65 63 11 0
-65 63 12 0
65 63 -11 -12 0
-65 -63 -11 -12 0
66 11 -12 0
66 -11 12 0
-66 11 12 0
-66 -11 -12 0
67 68 -65 0
67 -65 66 0
-67 68 65 0
-67 65 66 0
67 -65 -11 0
-67 65 -11 0
67 -68 65 11 -66 0
-67 -68 -65 11 -66 0
68 -11 66 0
-68 11 66 0
-69 66 0
68 -69 -11 0
-68 -69 11 0
68 69 11 -66 0
-68 69 -11 -66 0
-70 66 0
68 -70 11 0
-68 -70 -11 0
68 70 -11 -66 0
-68 70 11 -66 0
71 -67 68 0
71 -67 66 0
-71 67 68 0
-71 67 66 0
71 67 -68 -66 0
-71 -67 -68 -66 0
72 68 -66 0
72 -68 66 0
-72 68 66 0
-72 -68 -66 0
73 71 -72 0
73 -71 72 0
-73 71 72 0
-73 -71 -72 0
74 -73 13 0
74 -73 14 0
-74 73 13 0
-74 73 14 0
74 73 -13 -14 0
-74 -73 -13 -14 0
75 13 -14 0
75 -13 14 0
-75 13 14 0
-75 -13 -14 0
76 77 -74 0
76 -74 75 0
-76 77 74 0
-76 74 75 0
76 -74 -13 0
-76 74 -13 0
76 -77 74 13 -75 0
-76 -77 -74 13 -75 0
77 -13 75 0
-77 13 75 0
-78 75 0
77 -78 -13 0
-77 -78 13 0
77 78 13 -75 0
-77 78 -13 -75 0
-79 75 0
77 -79 13 0
-77 -79 -13 0
77 79 -13 -75 0
-77 79 13 -75 0
80 -76 77 0
80 -76 75 0
-80 76 77 0
-80 76 75 0
80 76 -77 -75 0
-80 -76 -77 -75 0
81 77 -75 0
81 -77 75 0
-81 77 75 0
-81 -77 -75 0
82 80 -81 0
82 -80 81 0
-82 80 81 0
-82 -80 -81 0
83 -82 15 0
83 -82 16 0
-83 82 15 0
-83 82 16 0
83 82 -15 -16 0
-83 -82 -15 -16 0
84 15 -16 0
84 -15 16 0
-84 15 16 0
-84 -15 -16 0
85 86 -83 0
85 -83 84 0
-85 86 83 0
-85 83 84 0
85 -83 -15 0
-85 83 -15 0
85 -86 83 15 -84 0
-85 -86 -83 15 -84 0
86 -15 84 0
-86 15 84 0
-87 84 0
86 -87 -15 0
-86 -87 15 0
86 87 15 -84 0
-86 87 -15 -84 0
-88 84 0
86 -88 15 0
-86 -88 -15 0
86 88 -15 -84 0
-86 88 15 -84 0
89 -85 86 0
89 -85 84 0
-89 85 86 0
-89 85 84 0
89 85 -86 -84 0
-89 -85 -86 -84 0
90 86 -84 0
90 -86 84 0
-90 86 84 0
-90 -86 -84 0
91 -89 17 0
91 -89 18 0
-91 89 17 0
-91 89 18 0
91 89 -17 -18 0
-91 -89 -17 -18 0
92 17 -18 0
92 -17 18 0
-92 17 18 0
-92 -17 -18 0
93 94 -91 0
93 -91 92 0
-93 94 91 0
-93 91 92 0
93 -91 -17 0
-93 91 -17 0
93 -94 91 17 -92 0
-93 -94 -91 17 -92 0
94 -17 92 0
-94 17 92 0
-95 92 0
94 -95 -17 0
-94 -95 17 0
94 95 17 -92 0
-94 95 -17 -92 0
-96 92 0
94 -96 17 0
-94 -96 -17 0
94 96 -17 -92 0
-94 96 17 -92 0
97 -93 94 0
97 -93 92 0
-97 93 94 0
-97 93 92 0
97 93 -94 -92 0
-97 -93 -94 -92 0
98 94 -92 0
98 -94 92 0
-98 94 92 0
-98 -94 -92 0
99 97 -98 0
99 -97 98 0
-99 97 98 0
-99 -97 -98 0
100 99 -20 0
100 -99 20 0
-100 99 20 0
-100 -99 -20 0
101 -100 19 0
101 -100 20 0
-101 100 19 0
-101 100 20 0
101 100 -19 -20 0
-101 -100 -19 -20 0
102 19 -20 0
102 -19 20 0
-102 19 20 0
-102 -19 -20 0
103 104 -101 0
103 -101 102 0
-103 104 101 0
-103 101 102 0
103 -101 -19 0
-103 101 -19 0
103 -104 101 19 -102 0
-103 -104 -101 19 -102 0
104 -19 102 0
-104 19 102 0
-105 102 0
104 -105 -19 0
-104 -105 19 0
104 105 19 -102 0
-104 105 -19 -102 0
-106 102 0
104 -106 19 0
-104 -106 -19 0
104 106 -19 -102 0
-104 106 19 -102 0
107 -103 104 0
107 -103 102 0
-107 103 104 0
-107 103 102 0
107 103 -104 -102 0
-107 -103 -104 -102 0
108 104 -102 0
108 -104 102 0
-108 104 102 0
-108 -104 -102 0
109 -107 25 0
109 -107 108 0
-109 107 25 0
-109 107 108 0
109 -107 104 -29 0
109 -107 -104 29 0
-109 107 104 -29 0
-109 107 -104 29 0
109 107 -25 104 29 -108 0
109 107 -25 -104 -29 -108 0
-109 -107 -25 104 29 -108 0
-109 -107 -25 -104 -29 -108 0
111 25 -104 0
111 -25 104 0
-111 25 104 0
-111 -25 -104 0
110 29 -108 0
110 -29 108 0
-110 29 108 0
-110 -29 -108 0
112 109 -110 0
112 -109 110 0
-112 109 110 0
-112 -109 -110 0
113 -112 25 0
113 -112 110 0
-113 112 25 0
-113 112 110 0
113 112 -25 -110 0
-113 -112 -25 -110 0
114 25 -110 0
114 -25 110 0
-114 25 110 0
-114 -25 -110 0
115 116 -113 0
115 -113 114 0
-115 116 113 0
-115 113 114 0
115 -113 -25 0
-115 113 -25 0
115 -116 113 25 -114 0
-115 -116 -113 25 -114 0
116 -25 114 0
-116 25 114 0
-117 114 0
116 -117 -25 0
-116 -117 25 0
116 117 25 -114 0
-116 117 -25 -114 0
-118 114 0
116 -118 25 0
-116 -118 -25 0
116 118 -25 -114 0
-116 118 25 -114 0
119 -115 116 0
119 -115 114 0
-119 115 116 0
-119 115 114 0
119 115 -116 -114 0
-119 -115 -116 -114 0
120 116 -114 0
120 -116 114 0
-120 116 114 0
-120 -116 -114 0
121 -119 34 0
121 -119 108 0
-121 119 34 0
-121 119 108 0
121 -119 111 -38 0
121 -119 -111 38 0
-121 119 111 -38 0
-121 119 -111 38 0
121 119 -34 111 38 -108 0
121 119 -34 -111 -38 -108 0
-121 -119 -34 111 38 -108 0
-121 -119 -34 -111 -38 -108 0
123 34 -111 0
123 -34 111 0
-123 34 111 0
-123 -34 -111 0
122 38 -108 0
122 -38 108 0
-122 38 108 0
-122 -38 -108 0
124 121 -122 0
124 -121 122 0
-124 121 122 0
-124 -121 -122 0
125 -124 34 0
125 -124 122 0
-125 124 34 0
-125 124 122 0
125 124 -34 -122 0
-125 -124 -34 -122 0
126 34 -122 0
126 -34 122 0
-126 34 122 0
-126 -34 -122 0
127 128 -125 0
127 -125 126 0
-127 128 125 0
-127 125 126 0
127 -125 -34 0
-127 125 -34 0
127 -128 125 34 -126 0
-127 -128 -125 34 -126 0
128 -34 126 0
-128 34 126 0
-129 126 0
128 -129 -34 0
-128 -129 34 0
128 129 34 -126 0
-128 129 -34 -126 0
-130 126 0
128 -130 34 0
-128 -130 -34 0
128 130 -34 -126 0
-128 130 34 -126 0
131 -127 128 0
131 -127 126 0
-131 127 128 0
-131 127 126 0
131 127 -128 -126 0
-131 -127 -128 -126 0
132 128 -126 0
132 -128 126 0
-132 128 126 0
-132 -128 -126 0
133 -131 43 0
133 -131 108 0
-133 131 43 0
-133 131 108 0
133 -131 123 -47 0
133 -131 -123 47 0
-133 131 123 -47 0
-133 131 -123 47 0
133 131 -43 123 47 -108 0
133 131 -43 -123 -47 -108 0
-133 -131 -43 123 47 -108 0
-133 -131 -43 -123 -47 -108 0
135 43 -123 0
135 -43 123 0
-135 43 123 0
-135 -43 -123 0
134 47 -108 0
134 -47 108 0
-134 47 108 0
-134 -47 -108 0
136 -133 43 0
136 -133 134 0
-136 133 43 0
-136 133 134 0
136 133 -43 -134 0
-136 -133 -43 -134 0
137 43 -134 0
137 -43 134 0
-137 43 134 0
-137 -43 -134 0
138 139 -136 0
138 -136 137 0
-138 139 136 0
-138 136 137 0
138 -136 -43 0
-138 136 -43 0
138 -139 136 43 -137 0
-138 -139 -136 43 -137 0
139 -43 137 0
-139 43 137 0
-140 137 0
139 -140 -43 0
-139 -140 43 0
139 140 43 -137 0
-139 140 -43 -137 0
-141 137 0
139 -141 43 0
-139 -141 -43 0
139 141 -43 -137 0
-139 141 43 -137 0
142 -138 139 0
142 -138 137 0
-142 138 139 0
-142 138 137 0
142 138 -139 -137 0
-142 -138 -139 -137 0
143 139 -137 0
143 -139 137 0
-143 139 137 0
-143 -139 -137 0
144 -142 51 0
144 -142 108 0
-144 142 51 0
-144 142 108 0
144 -142 135 -55 0
144 -142 -135 55 0
-144 142 135 -55 0
-144 142 -135 55 0
144 142 -51 135 55 -108 0
144 142 -51 -135 -55 -108 0
-144 -142 -51 135 55 -108 0
-144 -142 -51 -135 -55 -108 0
146 51 -135 0
146 -51 135 0
-146 51 135 0
-146 -51 -135 0
145 55 -108 0
145 -55 108 0
-145 55 108 0
-145 -55 -108 0
147 144 -145 0
147 -144 145 0
-147 144 145 0
-147 -144 -145 0
148 -147 51 0
148 -147 145 0
-148 147 51 0
-148 147 145 0
148 147 -51 -145 0
-148 -147 -51 -145 0
149 51 -145 0
149 -51 145 0
-149 51 145 0
-149 -51 -145 0
150 151 -148 0
150 -148 149 0
-150 151 148 0
-150 148 149 0
150 -148 -51 0
-150 148 -51 0
150 -151 148 51 -149 0
-150 -151 -148 51 -149 0
151 -51 149 0
-151 51 149 0
-152 149 0
151 -152 -51 0
-151 -152 51 0
151 152 51 -149 0
-151 152 -51 -149 0
-153 149 0
151 -153 51 0
-151 -153 -51 0
151 153 -51 -149 0
-151 153 51 -149 0
154 -150 151 0
154 -150 149 0
-154 150 151 0
-154 150 149 0
154 150 -151 -149 0
-154 -150 -151 -149 0
155 151 -149 0
155 -151 149 0
-155 151 149 0
-155 -151 -149 0
156 -154 60 0
156 -154 108 0
-156 154 60 0
-156 154 108 0
156 -154 146 -64 0
156 -154 -146 64 0
-156 154 146 -64 0
-156 154 -146 64 0
156 154 -60 146 64 -108 0
156 154 -60 -146 -64 -108 0
-156 -154 -60 146 64 -108 0
-156 -154 -60 -146 -64 -108 0
158 60 -146 0
158 -60 146 0
-158 60 146 0
-158 -60 -146 0
157 64 -108 0
157 -64 108 0
-157 64 108 0
-157 -64 -108 0
159 -156 60 0
159 -156 157 0
-159 156 60 0
-159 156 157 0
159 156 -60 -157 0
-159 -156 -60 -157 0
160 60 -157 0
160 -60 157 0
-160 60 157 0
-160 -60 -157 0
161 162 -159 0
161 -159 160 0
-161 162 159 0
-161 159 160 0
161 -159 -60 0
-161 159 -60 0
161 -162 159 60 -160 0
-161 -162 -159 60 -160 0
162 -60 160 0
-162 60 160 0
-163 160 0
162 -163 -60 0
-162 -163 60 0
162 163 60 -160 0
-162 163 -60 -160 0
-164 160 0
162 -164 60 0
-162 -164 -60 0
162 164 -60 -160 0
-162 164 60 -160 0
165 -161 162 0
165 -161 160 0
-165 161 162 0
-165 161 160 0
165 161 -162 -160 0
-165 -161 -162 -160 0
166 162 -160 0
166 -162 160 0
-166 162 160 0
-166 -162 -160 0
167 -165 68 0
167 -165 108 0
-167 165 68 0
-167 165 108 0
167 -165 158 -72 0
167 -165 -158 72 0
-167 165 158 -72 0
-167 165 -158 72 0
167 165 -68 158 72 -108 0
167 165 -68 -158 -72 -108 0
-167 -165 -68 158 72 -108 0
-167 -165 -68 -158 -72 -108 0
169 68 -158 0
169 -68 158 0
-169 68 158 0
-169 -68 -158 0
168 72 -108 0
168 -72 108 0
-168 72 108 0
-168 -72 -108 0
170 167 -168 0
170 -167 168 0
-170 167 168 0
-170 -167 -168 0
171 -170 68 0
171 -170 168 0
-171 170 68 0
-171 170 168 0
171 170 -68 -168 0
-171 -170 -68 -168 0
172 68 -168 0
172 -68 168 0
-172 68 168 0
-172 -68 -168 0
173 174 -171 0
173 -171 172 0
-173 174 171 0
-173 171 172 0
173 -171 -68 0
-173 171 -68 0
173 -174 171 68 -172 0
-173 -174 -171 68 -172 0
174 -68 172 0
-174 68 172 0
-175 172 0
174 -175 -68 0
-174 -175 68 0
174 175 68 -172 0
-174 175 -68 -172 0
-176 172 0
174 -176 68 0
-174 -176 -68 0
174 176 -68 -172 0
-174 176 68 -172 0
177 -173 174 0
177 -173 172 0
-177 173 174 0
-177 173 172 0
177 173 -174 -172 0
-177 -173 -174 -172 0
178 174 -172 0
178 -174 172 0
-178 174 172 0
-178 -174 -172 0
179 -177 77 0
179 -177 108 0
-179 177 77 0
-179 177 108 0
179 -177 169 -81 0
179 -177 -169 81 0
-179 177 169 -81 0
-179 177 -169 81 0
179 177 -77 169 81 -108 0
179 177 -77 -169 -81 -108 0
-179 -177 -77 169 81 -108 0
-179 -177 -77 -169 -81 -108 0
181 77 -169 0
181 -77 169 0
-181 77 169 0
-181 -77 -169 0
180 81 -108 0
180 -81 108 0
-180 81 108 0
-180 -81 -108 0
182 179 -180 0
182 -179 180 0
-182 179 180 0
-182 -179 -180 0
183 -182 77 0
183 -182 180 0
-183 182 77 0
-183 182 180 0
183 182 -77 -180 0
-183 -182 -77 -180 0
184 77 -180 0
184 -77 180 0
-184 77 180 0
-184 -77 -180 0
185 186 -183 0
185 -183 184 0
-185 186 183 0
-185 183 184 0
185 -183 -77 0
-185 183 -77 0
185 -186 183 77 -184 0
-185 -186 -183 77 -184 0
186 -77 184 0
-186 77 184 0
-187 184 0
186 -187 -77 0
-186 -187 77 0
186 187 77 -184 0
-186 187 -77 -184 0
-188 184 0
186 -188 77 0
-186 -188 -77 0
186 188 -77 -184 0
-186 188 77 -184 0
189 -185 186 0
189 -185 184 0
-189 185 186 0
-189 185 184 0
189 185 -186 -184 0
-189 -185 -186 -184 0
190 186 -184 0
190 -186 184 0
-190 186 184 0
-190 -186 -184 0
191 -189 86 0
191 -189 108 0
-191 189 86 0
-191 189 108 0
191 -189 181 -90 0
191 -189 -181 90 0
-191 189 181 -90 0
-191 189 -181 90 0
191 189 -86 181 90 -108 0
191 189 -86 -181 -90 -108 0
-191 -189 -86 181 90 -108 0
-191 -189 -86 -181 -90 -108 0
193 86 -181 0
193 -86 181 0
-193 86 181 0
-193 -86 -181 0
192 90 -108 0
192 -90 108 0
-192 90 108 0
-192 -90 -108 0
194 -191 86 0
194 -191 192 0
-194 191 86 0
-194 191 192 0
194 191 -86 -192 0
-194 -191 -86 -192 0
195 86 -192 0
195 -86 192 0
-195 86 192 0
-195 -86 -192 0
196 197 -194 0
196 -194 195 0
-196 197 194 0
-196 194 195 0
196 -194 -86 0
-196 194 -86 0
196 -197 194 86 -195 0
-196 -197 -194 86 -195 0
197 -86 195 0
-197 86 195 0
-198 195 0
197 -198 -86 0
-197 -198 86 0
197 198 86 -195 0
-197 198 -86 -195 0
-199 195 0
197 -199 86 0
-197 -199 -86 0
197 199 -86 -195 0
-197 199 86 -195 0
200 -196 197 0
200 -196 195 0
-200 196 197 0
-200 196 195 0
200 196 -197 -195 0
-200 -196 -197 -195 0
201 197 -195 0
201 -197 195 0
-201 197 195 0
-201 -197 -195 0
202 -200 94 0
202 -200 108 0
-202 200 94 0
-202 200 108 0
202 -200 193 -98 0
202 -200 -193 98 0
-202 200 193 -98 0
-202 200 -193 98 0
202 200 -94 193 98 -108 0
202 200 -94 -193 -98 -108 0
-202 -200 -94 193 98 -108 0
-202 -200 -94 -193 -98 -108 0
204 94 -193 0
204 -94 193 0
-204 94 193 0
-204 -94 -193 0
203 98 -108 0
203 -98 108 0
-203 98 108 0
-203 -98 -108 0
205 202 -203 0
205 -202 203 0
-205 202 203 0
-205 -202 -203 0
206 -205 94 0
206 -205 203 0
-206 205 94 0
-206 205 203 0
206 205 -94 -203 0
-206 -205 -94 -203 0
207 94 -203 0
207 -94 203 0
-207 94 203 0
-207 -94 -203 0
208 209 -206 0
208 -206 207 0
-208 209 206 0
-208 206 207 0
208 -206 -94 0
-208 206 -94 0
208 -209 206 94 -207 0
-208 -209 -206 94 -207 0
209 -94 207 0
-209 94 207 0
-210 207 0
209 -210 -94 0
-209 -210 94 0
209 210 94 -207 0
-209 210 -94 -207 0
-211 207 0
209 -211 94 0
-209 -211 -94 0
209 211 -94 -207 0
-209 211 94 -207 0
212 -208 209 0
212 -208 207 0
-212 208 209 0
-212 208 207 0
212 208 -209 -207 0
-212 -208 -209 -207 0
213 209 -207 0
213 -209 207 0
-213 209 207 0
-213 -209 -207 0
-116 0
-128 0
-132 0
-139 0
-143 0
-151 0
-155 0
-162 0
-166 0
-174 0
-178 0
-186 0
-190 0
-197 0
-201 0
-209 0
-213 0
-204 0
-108 0
